c FILE: i160-134

c SOURCE: From steinlib

c DESCRIPTION: Steinlib instance with 160 nodes and 320 edges.

p edge 160 320
e 1 3
e 1 21
e 1 40
e 1 54
e 1 60
e 1 77
e 1 79
e 1 91
e 1 93
e 1 104
e 1 124
e 1 130
e 1 134
e 2 114
e 2 125
e 2 143
e 2 156
e 3 61
e 3 62
e 3 67
e 3 120
e 3 153
e 4 13
e 4 15
e 4 40
e 4 44
e 4 158
e 5 9
e 5 16
e 5 21
e 5 50
e 5 76
e 5 96
e 5 129
e 6 40
e 6 87
e 6 100
e 6 115
e 6 143
e 7 42
e 8 10
e 8 53
e 8 57
e 8 88
e 8 130
e 8 131
e 9 71
e 10 44
e 10 89
e 10 109
e 11 122
e 11 154
e 12 129
e 13 28
e 13 111
e 13 139
e 14 33
e 14 39
e 14 76
e 14 80
e 14 128
e 15 21
e 15 31
e 16 19
e 16 98
e 16 127
e 16 129
e 16 137
e 16 138
e 16 140
e 16 157
e 17 60
e 17 67
e 17 95
e 17 107
e 17 157
e 18 37
e 18 48
e 18 92
e 18 135
e 18 136
e 18 148
e 18 156
e 19 40
e 19 66
e 19 103
e 19 106
e 19 159
e 20 96
e 20 111
e 20 119
e 20 147
e 21 22
e 21 43
e 21 91
e 22 89
e 22 91
e 22 109
e 23 38
e 24 44
e 24 59
e 24 155
e 25 45
e 25 51
e 25 93
e 25 107
e 25 132
e 25 154
e 26 32
e 26 42
e 26 47
e 26 63
e 26 78
e 26 139
e 27 38
e 27 92
e 27 94
e 27 96
e 27 115
e 28 94
e 28 108
e 29 50
e 29 77
e 29 125
e 29 136
e 29 137
e 30 125
e 30 130
e 31 75
e 31 82
e 31 108
e 32 130
e 32 136
e 32 152
e 32 154
e 33 35
e 33 99
e 33 104
e 34 46
e 34 88
e 35 65
e 35 111
e 35 112
e 35 141
e 36 64
e 36 85
e 36 96
e 37 112
e 37 159
e 38 70
e 38 83
e 38 150
e 38 151
e 39 47
e 39 68
e 39 91
e 39 141
e 40 48
e 40 68
e 40 97
e 40 112
e 40 131
e 41 100
e 41 141
e 42 79
e 42 96
e 42 116
e 42 129
e 42 145
e 42 160
e 43 73
e 43 127
e 44 81
e 46 66
e 46 78
e 46 79
e 46 83
e 47 71
e 47 80
e 47 117
e 48 76
e 49 51
e 49 73
e 49 81
e 50 81
e 50 87
e 50 114
e 50 117
e 51 89
e 52 54
e 52 72
e 52 119
e 53 81
e 53 117
e 53 129
e 54 55
e 54 62
e 54 68
e 54 83
e 54 98
e 54 139
e 54 152
e 55 60
e 55 73
e 55 81
e 55 94
e 56 87
e 56 124
e 57 83
e 57 110
e 58 90
e 58 97
e 58 153
e 59 64
e 59 110
e 60 63
e 60 70
e 61 76
e 61 141
e 61 155
e 62 71
e 62 126
e 62 155
e 63 73
e 63 105
e 63 138
e 63 143
e 63 147
e 64 129
e 65 103
e 65 142
e 66 80
e 66 98
e 66 129
e 67 110
e 67 148
e 68 101
e 68 107
e 69 70
e 70 109
e 70 133
e 71 152
e 72 104
e 72 149
e 73 95
e 74 123
e 74 128
e 76 132
e 76 147
e 77 79
e 77 121
e 77 128
e 79 134
e 79 141
e 79 154
e 81 140
e 82 117
e 82 127
e 82 138
e 82 158
e 83 146
e 83 159
e 84 132
e 84 142
e 86 89
e 86 97
e 86 109
e 86 111
e 86 131
e 87 93
e 88 152
e 89 119
e 89 121
e 89 127
e 91 96
e 91 149
e 92 128
e 92 145
e 93 120
e 93 153
e 94 141
e 95 106
e 96 157
e 97 98
e 97 123
e 97 152
e 100 131
e 101 145
e 102 105
e 104 148
e 106 117
e 107 154
e 107 160
e 108 141
e 109 114
e 109 149
e 109 159
e 112 115
e 113 116
e 114 156
e 118 131
e 118 152
e 121 126
e 121 152
e 122 158
e 122 159
e 123 139
e 125 136
e 125 152
e 127 128
e 131 136
e 132 154
e 133 138
e 134 154
e 138 153
e 142 154
e 144 148
e 145 149
e 150 153
e 156 159
